c status 71 1469386756890
c status 59 1469386756891
c status 58 1469386756935
c status 57 1469386757077
s td 22 57 81
b 1 8 9 37 5 3 35 19 11 10 12 47 7 30 6 18 46 57 27 20 73 62 41 56 32 51 44
b 2 9 37 5 3 35 48 19 11 42 10 12 47 58 7 30 31 6 18 46 68 57 21 27 20 73 62 45 74 63 38 41 56 32 33 29 51 44 53
b 3 25 26 36 37 3 35 15 34 69 2 14 47 58 30 31 6 27 73 61 32 33 29 49 1
b 4 26 36 37 5 3 35 48 15 34 69 2 14 47 58 7 30 31 6 46 59 70 13 27 17 50 73 61 62 74 38 32 33 29 49 1 4
b 5 36 37 5 3 35 48 15 34 42 69 2 14 47 58 7 43 30 31 6 46 59 70 13 27 17 50 73 61 62 72 45 39 60 74 38 41 32 33 29 49 44 1 4
b 6 37 5 3 35 48 15 19 11 34 42 69 10 12 2 14 47 58 7 43 30 31 6 18 46 68 57 59 70 13 21 27 17 20 50 73 61 62 72 45 39 60 74 63 38 41 56 32 33 29 51 49 44 53 1 4
b 7 5 3 24 35 48 15 19 11 34 42 69 10 12 2 14 47 58 7 43 30 31 6 18 46 68 57 59 70 13 21 27 17 20 50 73 61 62 72 45 39 60 74 63 38 41 56 32 33 29 65 51 49 44 77 53 1 4
b 8 3 24 35 48 15 19 11 34 42 69 10 12 2 14 47 58 7 43 30 31 6 18 46 68 57 59 70 13 21 27 17 20 50 73 61 62 72 45 39 60 74 63 38 41 56 32 33 29 65 51 49 44 75 77 53 1 4
b 9 22 79 55 66 23 15 19 11 34 42 10 12 14 18 57 21 17 20 61 32 33 51 71 44 77
b 10 79 55 66 23 81 24 35 15 19 11 34 42 69 10 12 2 14 30 18 46 68 57 59 13 21 17 20 61 39 32 33 51 49 71 44 77
b 11 67 78 55 66 23 81 24 19 34 12 58 7 43 31 59 61 62 45 60 63 56 65 77 4
b 12 78 54 55 66 23 81 24 19 34 42 69 12 58 7 43 30 31 6 18 59 70 13 73 61 62 72 45 60 74 63 56 65 71 75 77 1 4
b 13 54 55 66 23 81 24 48 19 34 42 69 10 12 47 58 7 43 30 31 6 18 68 59 70 13 21 50 73 61 62 72 45 60 74 63 56 32 65 51 49 71 44 75 77 53 1 4
b 14 55 66 23 81 24 35 48 15 19 11 34 42 69 10 12 2 14 47 58 7 43 30 31 6 18 46 68 57 59 70 13 21 17 20 50 73 61 62 72 45 39 60 74 63 56 32 33 65 51 49 71 44 75 77 53 1 4
b 15 81 24 35 48 15 19 11 34 42 69 10 12 2 14 47 58 7 43 30 31 6 18 46 68 57 59 70 13 21 17 20 50 73 61 62 72 45 39 60 74 63 41 56 32 33 65 51 49 71 44 75 77 53 1 4
b 16 24 35 48 15 19 11 34 42 69 10 12 2 14 47 58 7 43 30 31 6 18 46 68 57 59 70 13 21 27 17 20 50 73 61 62 72 45 39 60 74 63 38 41 56 32 33 29 65 51 49 71 44 75 77 53 1 4
b 17 16 28 40 52 64 76 80 27 17 20 60 38 56 32 49 71 44 1 4
b 18 28 40 52 64 76 80 27 17 20 50 61 72 45 39 60 38 56 32 33 29 49 71 44 1 4
b 19 40 52 64 76 80 27 17 20 50 73 61 62 72 45 39 60 38 41 56 32 33 29 51 49 71 44 1 4
b 20 52 64 76 80 27 17 20 50 73 61 62 72 45 39 60 74 63 38 41 56 32 33 29 51 49 71 44 53 1 4
b 21 64 76 80 27 17 20 50 73 61 62 72 45 39 60 74 63 38 41 56 32 33 29 65 51 49 71 44 75 53 1 4
b 22 76 80 27 17 20 50 73 61 62 72 45 39 60 74 63 38 41 56 32 33 29 65 51 49 71 44 75 77 53 1 4
1 2
2 6
6 7
7 8
8 16
16 15
15 14
14 13
6 5
13 12
14 10
5 4
16 22
22 21
21 20
20 19
10 9
19 18
12 11
4 3
18 17
